param n := 60;
param c := 10000
param : V : p w :=
   0	  46	 480
   1	  98	 256
   2	  45	 264
   3	  95	 373
   4	   4	 297
   5	  31	 330
   6	 100	 412
   7	  57	 281
   8	  69	 307
   9	  39	 392
  10	  69	 286
  11	  16	 322
  12	  37	 432
  13	  54	 265
  14	  51	 303
  15	   9	 478
  16	 100	 255
  17	  51	 267
  18	  39	 406
  19	  70	 268
  20	  45	 326
  21	  35	 365
  22	   2	 255
  23	  63	 380
  24	  98	 407
  25	  12	 279
  26	  72	 314
  27	  22	 378
  28	  19	 293
  29	  84	 329
  30	  37	 362
  31	  46	 273
  32	  95	 365
  33	  56	 487
  34	   1	 252
  35	  22	 261
  36	  47	 422
  37	  51	 260
  38	  18	 318
  39	  19	 410
  40	  45	 266
  41	  48	 324
  42	  99	 410
  43	  39	 263
  44	  72	 327
  45	  72	 370
  46	   8	 260
  47	  45	 370
  48	  34	 454
  49	  60	 250
  50	  75	 296
  51	  11	 366
  52	  26	 281
  53	  42	 353
  54	  85	 476
  55	  82	 260
  56	  59	 264
  57	  58	 465
  58	  71	 256
  59	  26	 279
;

set E :=
   0	   3
   0	   8
   0	  13
   0	  14
   0	  16
   0	  20
   0	  22
   0	  38
   0	  39
   0	  40
   0	  43
   0	  46
   1	  11
   1	  17
   1	  21
   1	  22
   1	  24
   1	  26
   1	  35
   1	  36
   1	  37
   1	  39
   1	  41
   1	  48
   1	  53
   1	  58
   2	   3
   2	   5
   2	  10
   2	  13
   2	  16
   2	  31
   2	  36
   2	  37
   2	  45
   2	  47
   2	  48
   2	  49
   2	  54
   3	   7
   3	   8
   3	  10
   3	  12
   3	  14
   3	  15
   3	  17
   3	  27
   3	  38
   3	  48
   3	  50
   3	  52
   3	  55
   4	   7
   4	  11
   4	  20
   4	  22
   4	  25
   4	  38
   4	  39
   4	  42
   4	  56
   4	  57
   5	   8
   5	  11
   5	  14
   5	  16
   5	  17
   5	  31
   5	  41
   5	  49
   5	  50
   5	  56
   6	  12
   6	  15
   6	  16
   6	  20
   6	  26
   6	  29
   6	  33
   6	  34
   6	  36
   6	  44
   6	  46
   7	   9
   7	  11
   7	  20
   7	  25
   7	  32
   7	  34
   7	  40
   7	  41
   7	  43
   7	  47
   7	  50
   8	  14
   8	  17
   8	  19
   8	  24
   8	  37
   8	  42
   8	  43
   8	  52
   8	  54
   9	  10
   9	  13
   9	  18
   9	  22
   9	  23
   9	  26
   9	  28
   9	  35
   9	  39
   9	  56
   9	  57
  10	  14
  10	  16
  10	  18
  10	  20
  10	  21
  10	  31
  10	  36
  10	  39
  10	  40
  10	  53
  10	  54
  10	  57
  10	  58
  11	  14
  11	  23
  11	  25
  11	  26
  11	  27
  11	  33
  11	  42
  11	  46
  11	  50
  11	  51
  11	  55
  11	  56
  12	  16
  12	  18
  12	  26
  12	  27
  12	  31
  12	  33
  12	  42
  12	  55
  12	  57
  13	  15
  13	  20
  13	  27
  13	  30
  13	  33
  13	  34
  13	  43
  13	  54
  13	  55
  14	  17
  14	  19
  14	  24
  14	  35
  14	  36
  14	  39
  14	  40
  14	  41
  14	  58
  14	  59
  15	  23
  15	  26
  15	  33
  15	  36
  15	  43
  15	  45
  15	  47
  15	  48
  15	  56
  15	  57
  15	  58
  15	  59
  16	  18
  16	  39
  16	  42
  16	  43
  16	  54
  17	  20
  17	  23
  17	  35
  17	  44
  17	  51
  17	  53
  17	  54
  18	  24
  18	  25
  18	  32
  18	  34
  18	  39
  18	  53
  18	  59
  19	  20
  19	  21
  19	  23
  19	  24
  19	  25
  19	  43
  19	  45
  19	  49
  19	  52
  19	  56
  19	  59
  20	  32
  20	  38
  20	  45
  20	  46
  20	  49
  20	  50
  20	  54
  20	  57
  21	  24
  21	  29
  21	  31
  21	  33
  21	  40
  21	  44
  21	  46
  21	  50
  21	  55
  21	  56
  22	  30
  22	  31
  22	  36
  22	  44
  22	  45
  22	  51
  23	  25
  23	  31
  23	  34
  23	  37
  23	  45
  23	  57
  24	  25
  24	  34
  24	  41
  24	  42
  24	  43
  24	  45
  24	  47
  25	  28
  25	  30
  25	  31
  25	  34
  25	  37
  25	  46
  26	  27
  26	  29
  26	  33
  26	  36
  26	  44
  26	  53
  26	  56
  27	  30
  27	  32
  27	  38
  27	  50
  27	  51
  27	  54
  28	  30
  28	  52
  28	  54
  28	  58
  29	  38
  29	  41
  29	  42
  29	  46
  29	  49
  29	  50
  29	  55
  29	  59
  30	  39
  30	  42
  30	  53
  31	  33
  31	  39
  31	  40
  31	  45
  31	  51
  31	  54
  31	  55
  32	  34
  32	  46
  32	  49
  32	  54
  32	  58
  33	  36
  33	  56
  33	  58
  33	  59
  34	  36
  34	  38
  34	  43
  34	  51
  35	  43
  35	  45
  35	  51
  35	  54
  35	  59
  36	  41
  36	  43
  36	  44
  36	  48
  37	  42
  37	  43
  37	  51
  37	  58
  38	  39
  38	  51
  38	  52
  39	  41
  39	  43
  39	  46
  39	  51
  39	  54
  39	  59
  40	  43
  40	  49
  40	  50
  40	  51
  40	  55
  41	  43
  41	  54
  42	  43
  42	  45
  42	  54
  42	  55
  43	  47
  43	  48
  43	  51
  43	  53
  43	  59
  44	  46
  44	  53
  44	  57
  44	  59
  45	  56
  45	  59
  46	  52
  47	  48
  47	  56
  47	  59
  49	  55
  49	  56
  49	  59
  50	  52
  50	  58
  50	  59
  52	  53
  52	  54
  54	  56
  55	  57
  56	  59
  57	  59
;
